(set-logic QF_UFLIA)

(declare-fun uninterp_mul (Int Int) Int)
(declare-fun uninterp_mod_256 (Int) Int)
(declare-fun uninterp_div (Int Int) Int)


(define-fun axiom_mul_by_const ((a!a Int) (b!b Int)) Bool
 (=
  (uninterp_mul a!a b!b)
  (* a!a b!b)
 )
)

(define-fun axiom_mul_signed_const ((a!a Int) (b!b Int)) Bool
 (and
  (=
   (uninterp_mul (- a!a 115792089237316195423570985008687907853269984665640564039457584007913129639936) b!b)
   (- (* a!a b!b) (* 115792089237316195423570985008687907853269984665640564039457584007913129639936 b!b))
  )
  (=
   (uninterp_mul a!a (- b!b 115792089237316195423570985008687907853269984665640564039457584007913129639936))
   (* a!a (- b!b 115792089237316195423570985008687907853269984665640564039457584007913129639936))
  )
  (=
   (uninterp_mul
    (- a!a 115792089237316195423570985008687907853269984665640564039457584007913129639936)
    (- b!b 115792089237316195423570985008687907853269984665640564039457584007913129639936)
   )
   (-
    (* a!a (- b!b 115792089237316195423570985008687907853269984665640564039457584007913129639936))
    (* 115792089237316195423570985008687907853269984665640564039457584007913129639936 (- b!b 115792089237316195423570985008687907853269984665640564039457584007913129639936))
   )
  )
 )
)

(define-fun axiom_mul_safe ((a!a Int) (b!b Int)) Bool
 (=>
  (and (> a!a 0) (> b!b 0))
  (=
   (=
    (uninterp_div (uninterp_mod_256 (uninterp_mul a!a b!b)) a!a)
    b!b
   )
   (< (uninterp_mul a!a b!b) 115792089237316195423570985008687907853269984665640564039457584007913129639936)
  )
 )
)

(define-fun axiom_mul_safeMath ((a!a Int) (b!b Int)) Bool
 (=>
  (and (not (= a!a 0)) (not (= b!b 0)))
  (and
   (= (uninterp_div (uninterp_mul a!a b!b) a!a) b!b)
   (= (uninterp_div (uninterp_mul a!a b!b) b!b) a!a)
  )
 )
)

(define-fun axiom_solc8_safeMath ((a!a Int) (b!b Int)) Bool
 (=>
  (and (> a!a 0) (> b!b 0))
  (=
   (<
    (uninterp_div 115792089237316195423570985008687907853269984665640564039457584007913129639935 a!a)
    b!b
   )
   (>
    (uninterp_mul a!a b!b)
    115792089237316195423570985008687907853269984665640564039457584007913129639935
   )
  )
 )
)

(define-fun axiom_mul_signed ((a!a Int) (b!b Int)) Bool
 (and
  (=
   (uninterp_mod_256 (uninterp_mul a!a b!b))
   (uninterp_mod_256 (uninterp_mul (- a!a 115792089237316195423570985008687907853269984665640564039457584007913129639936) b!b))
  )
  (=
   (uninterp_mod_256 (uninterp_mul a!a b!b))
   (uninterp_mod_256 (uninterp_mul a!a (- b!b 115792089237316195423570985008687907853269984665640564039457584007913129639936)))
  )
  (=
   (uninterp_mod_256 (uninterp_mul a!a b!b))
   (uninterp_mod_256 (uninterp_mul (- a!a 115792089237316195423570985008687907853269984665640564039457584007913129639936) (- b!b 115792089237316195423570985008687907853269984665640564039457584007913129639936)))
  )
 )
)
(define-fun axiom_solc8_signedSafeMath ((a!a Int) (b!b Int)) Bool
 (and
  (=>
   (and
    (and (> a!a 0) (<= a!a 57896044618658097711785492504343953926634992332820282019728792003956564819967))
    (and (> b!b 0) (<= b!b 57896044618658097711785492504343953926634992332820282019728792003956564819967))
   )
   (=
    (<= (uninterp_mul a!a b!b) 57896044618658097711785492504343953926634992332820282019728792003956564819967)
    (<= a!a (uninterp_div 57896044618658097711785492504343953926634992332820282019728792003956564819967 b!b))
   )
  )
  (=>
   (and
    (and
     (> a!a 57896044618658097711785492504343953926634992332820282019728792003956564819967)
     (<= a!a 115792089237316195423570985008687907853269984665640564039457584007913129639935)
    )
    (and
     (> b!b 57896044618658097711785492504343953926634992332820282019728792003956564819967)
     (<= b!b 115792089237316195423570985008687907853269984665640564039457584007913129639935)
    )
   )
   (=
    (<= (uninterp_mul (- a!a 115792089237316195423570985008687907853269984665640564039457584007913129639936) (- b!b 115792089237316195423570985008687907853269984665640564039457584007913129639936)) 57896044618658097711785492504343953926634992332820282019728792003956564819967)
    (<= (- 115792089237316195423570985008687907853269984665640564039457584007913129639936 a!a) (uninterp_div 57896044618658097711785492504343953926634992332820282019728792003956564819967 (- 115792089237316195423570985008687907853269984665640564039457584007913129639936 b!b)))
   )
  )
  (=>
   (and
    (and
     (> a!a 57896044618658097711785492504343953926634992332820282019728792003956564819967)
     (<= a!a 115792089237316195423570985008687907853269984665640564039457584007913129639935)
    )
    (and (> b!b 0) (<= b!b 57896044618658097711785492504343953926634992332820282019728792003956564819967))
   )
   (=
    (>= (uninterp_mul (- a!a 115792089237316195423570985008687907853269984665640564039457584007913129639936) b!b) (- 57896044618658097711785492504343953926634992332820282019728792003956564819968))
    (<= (- 115792089237316195423570985008687907853269984665640564039457584007913129639936 a!a) (uninterp_div 57896044618658097711785492504343953926634992332820282019728792003956564819968 b!b))
   )
  )
  (=>
   (and
    (and (> a!a 0) (<= a!a 57896044618658097711785492504343953926634992332820282019728792003956564819967))
    (and
     (> b!b 57896044618658097711785492504343953926634992332820282019728792003956564819967)
     (<= b!b 115792089237316195423570985008687907853269984665640564039457584007913129639935)
    )
   )
   (=
    (>= (uninterp_mul a!a (- b!b 115792089237316195423570985008687907853269984665640564039457584007913129639936)) (- 57896044618658097711785492504343953926634992332820282019728792003956564819968))
    (<= (- 115792089237316195423570985008687907853269984665640564039457584007913129639936 b!b) (uninterp_div 57896044618658097711785492504343953926634992332820282019728792003956564819968 a!a))
   )
  )
 )
)

(define-fun axiom_combinedMulConst ((a!a Int) (b!b Int)) Bool
 (and
  (axiom_mul_by_const a!a b!b)
  (axiom_mul_signed_const a!a b!b)
  (axiom_mul_safe a!a b!b)
  (axiom_mul_safeMath a!a b!b)
  (axiom_solc8_safeMath a!a b!b)
  (axiom_mul_signed a!a b!b)
  (axiom_solc8_signedSafeMath a!a b!b)
 )
)

(declare-fun I63 () Int)

(assert
  (axiom_combinedMulConst 1100000000000 I63)
)

(check-sat)
